NAME : brazil58.tour
COMMENT : Optimum tour for brazil58.tsp (Length 25395)
TYPE : TOUR
DIMENSION : 58
TOUR_SECTION
19
26
17
36
21
39
11
31
7
38
42
16
22
8
4
50
53
20
32
9
25
40
13
30
1
18
44
58
24
57
12
23
5
27
43
49
47
51
52
10
35
41
2
54
55
48
3
29
33
45
56
46
34
15
37
14
28
6
-1
EOF
